Version identifier: 22.1.0.0 | 2022-03-09 | 1a383f8ce
CPXPARAM_Threads                                 1
CPXPARAM_MIP_Strategy_VariableSelect             3
CPXPARAM_TimeLimit                               600
Tried aggregator 1 time.
MIP Presolve eliminated 14 rows and 0 columns.
MIP Presolve modified 1 coefficients.
Reduced MIP has 2706 rows, 6001 columns, and 80468 nonzeros.
Reduced MIP has 6000 binaries, 0 generals, 0 SOSs, and 0 indicators.
Presolve time = 0.04 sec. (25.93 ticks)
Found incumbent of value 19.000000 after 0.11 sec. (67.62 ticks)
Probing time = 0.01 sec. (3.71 ticks)
Tried aggregator 1 time.
Detecting symmetries...
Reduced MIP has 2706 rows, 6001 columns, and 80468 nonzeros.
Reduced MIP has 6000 binaries, 0 generals, 0 SOSs, and 0 indicators.
Presolve time = 0.05 sec. (32.01 ticks)
Probing time = 0.01 sec. (3.71 ticks)
Clique table members: 300.
MIP emphasis: balance optimality and feasibility.
MIP search method: dynamic search.
Parallel mode: none, using 1 thread.
Root relaxation solution time = 4.91 sec. (4733.55 ticks)

        Nodes                                         Cuts/
   Node  Left     Objective  IInf  Best Integer    Best Bound    ItCnt     Gap

*     0+    0                           19.0000        0.0000           100.00%
      0     0        0.0000  1442       19.0000        0.0000    10538  100.00%
*     0+    0                            3.0000        0.0000           100.00%
*     0+    0                            1.0000        0.0000           100.00%
*     0+    0                            0.5000        0.0000           100.00%
Detecting symmetries...
      0     2        0.0000   109        0.5000        0.0000    10538  100.00%
Elapsed time = 21.77 sec. (21317.35 ticks, tree = 0.01 MB, solutions = 4)
      1     3        0.0000  1266        0.5000        0.0000    31247  100.00%
      2     4        0.0000   488        0.5000        0.0000    37788  100.00%
      3     5        0.0000  1262        0.5000        0.0000    52139  100.00%
      4     6        0.0000   485        0.5000        0.0000    52575  100.00%
      5     7        0.0000   385        0.5000        0.0000    57676  100.00%
      6     8        0.0000   381        0.5000        0.0000    59712  100.00%
      7     9        0.0000   394        0.5000        0.0000    63206  100.00%
      8    10        0.0000   378        0.5000        0.0000    63434  100.00%
      9    11        0.0000   375        0.5000        0.0000    64830  100.00%
     10    12        0.0000   486        0.5000        0.0000    70436  100.00%
Elapsed time = 49.40 sec. (48127.90 ticks, tree = 0.13 MB, solutions = 4)
     12    14        0.0000   575        0.5000        0.0000    87244  100.00%
     14    16        0.0000   504        0.5000        0.0000    93109  100.00%
     17    19        0.0000   326        0.5000        0.0000    94034  100.00%
     19    21        0.0000   347        0.5000        0.0000    96204  100.00%
     20    22        0.0000   415        0.5000        0.0000   101394  100.00%
     21    23        0.0000  1206        0.5000        0.0000   115560  100.00%
     22    24        0.0000   431        0.5000        0.0000   123994  100.00%
     23    25        0.0000   497        0.5000        0.0000   125666  100.00%
     24    26        0.0000   554        0.5000        0.0000   132967  100.00%
     25    27        0.0000   521        0.5000        0.0000   147184  100.00%
Elapsed time = 85.19 sec. (82599.77 ticks, tree = 0.43 MB, solutions = 4)
     27    29        0.0000   486        0.5000        0.0000   155127  100.00%
     29    31        0.0000   554        0.5000        0.0000   159885  100.00%
     31    33        0.0000   470        0.5000        0.0000   160788  100.00%
     33    35        0.0000   883        0.5000        0.0000   169035  100.00%
     36    38        0.0000   383        0.5000        0.0000   170550  100.00%
     38    40        0.0000   393        0.5000        0.0000   176491  100.00%
     40    42        0.0000   408        0.5000        0.0000   182860  100.00%
     42    44       -0.0000   890        0.5000        0.0000   195322  100.00%
     44    46        0.0000   414        0.5000        0.0000   196776  100.00%
     46    48        0.0000   756        0.5000        0.0000   205320  100.00%
Elapsed time = 151.10 sec. (144011.47 ticks, tree = 0.92 MB, solutions = 4)
     48    50        0.0000  1110        0.5000        0.0000   219443  100.00%
     49    51        0.0000  1038        0.5000        0.0000   240281  100.00%
     50    52        0.0000  1092        0.5000        0.0000   262661  100.00%
     53    55        0.0000  1050        0.5000        0.0000   264169  100.00%
     55    57        0.0000  1043        0.5000        0.0000   265559  100.00%
     58    60        0.0000  1074        0.5000        0.0000   268102  100.00%
     60    62       -0.0000  1026        0.5000        0.0000   269644  100.00%
     63    65        0.0000  1023        0.5000        0.0000   271217  100.00%
     65    67        0.0000  1023        0.5000        0.0000   273797  100.00%
     67    69        0.0000  1021        0.5000        0.0000   275089  100.00%
Elapsed time = 185.21 sec. (177335.11 ticks, tree = 1.39 MB, solutions = 4)
     70    72        0.0000  1043        0.5000        0.0000   277524  100.00%
     72    74        0.0000  1027        0.5000        0.0000   279049  100.00%
     74    76        0.0000  1044        0.5000        0.0000   280663  100.00%
     76    78        0.0000  1052        0.5000        0.0000   286093  100.00%
     78    80        0.0000  1084        0.5000        0.0000   288980  100.00%
     80    82        0.0000  1027        0.5000        0.0000   289646  100.00%
     82    84        0.0000  1021        0.5000        0.0000   291024  100.00%
     84    86        0.0000  1043        0.5000        0.0000   293808  100.00%
     86    88        0.0000   980        0.5000        0.0000   296057  100.00%
     88    90        0.0000   997        0.5000        0.0000   297931  100.00%
Elapsed time = 235.25 sec. (222904.29 ticks, tree = 1.88 MB, solutions = 4)
     89    91        0.0000   986        0.5000        0.0000   302153  100.00%
     90    92        0.0000   987        0.5000        0.0000   302255  100.00%
     92    94        0.0000   986        0.5000        0.0000   304268  100.00%
     94    96       -0.0000   978        0.5000        0.0000   306713  100.00%
     96    98        0.0000   976        0.5000        0.0000   308449  100.00%
     98   100        0.0000   991        0.5000        0.0000   310383  100.00%
    100   102        0.0000  1002        0.5000        0.0000   312237  100.00%
    102   104       -0.0000   995        0.5000        0.0000   314958  100.00%
    104   106        0.0000   995        0.5000        0.0000   317318  100.00%
    106   108       -0.0000  1003        0.5000        0.0000   319331  100.00%
Elapsed time = 255.58 sec. (242381.68 ticks, tree = 2.30 MB, solutions = 4)
    109   111        0.0000  1005        0.5000        0.0000   320525  100.00%
    111   113        0.0000  1008        0.5000        0.0000   322059  100.00%
    113   115        0.0000  1017        0.5000        0.0000   326165  100.00%
    116   118        0.0000   989        0.5000        0.0000   327117  100.00%
    119   121        0.0000   968        0.5000        0.0000   329554  100.00%
    122   124       -0.0000   959        0.5000        0.0000   331235  100.00%
    125   127        0.0000   979        0.5000        0.0000   334505  100.00%
    128   130        0.0000   959        0.5000        0.0000   336890  100.00%
    131   133        0.0000   947        0.5000        0.0000   338030  100.00%
    134   136        0.0000   915        0.5000        0.0000   339492  100.00%
Elapsed time = 267.96 sec. (254543.90 ticks, tree = 2.96 MB, solutions = 4)
    137   139        0.0000   920        0.5000        0.0000   342888  100.00%
    139   141       -0.0000   955        0.5000        0.0000   343667  100.00%
    141   142       -0.0000   883        0.5000        0.0000   344441  100.00%
    144   145        0.0000   917        0.5000        0.0000   346978  100.00%
    147   148        0.0000   901        0.5000        0.0000   348865  100.00%
    150   151        0.0000   917        0.5000        0.0000   350670  100.00%
    154   155        0.0000   896        0.5000        0.0000   352339  100.00%
    158   159        0.0000   883        0.5000        0.0000   353391  100.00%
    161   162        0.0000   880        0.5000        0.0000   354637  100.00%
    164   165        0.0000   819        0.5000        0.0000   357166  100.00%
Elapsed time = 280.17 sec. (266300.83 ticks, tree = 3.64 MB, solutions = 4)
    167   168        0.0000   819        0.5000        0.0000   359094  100.00%
    170   171        0.0000   763        0.5000        0.0000   362818  100.00%
    174   175        0.0000   706        0.5000        0.0000   365945  100.00%
    177   178        0.0000   569        0.5000        0.0000   370681  100.00%
    181   182        0.0000   501        0.5000        0.0000   374921  100.00%
    185   183    infeasible              0.5000        0.0000   381601  100.00%
    189   187       -0.0000   413        0.5000        0.0000   385047  100.00%
    194   190        0.0000   350        0.5000        0.0000   389939  100.00%
    199   195        0.0000   252        0.5000        0.0000   394253  100.00%
    204   200        0.0000   214        0.5000        0.0000   398577  100.00%
Elapsed time = 293.36 sec. (277757.39 ticks, tree = 4.46 MB, solutions = 4)
    210   206        0.0000   203        0.5000        0.0000   402306  100.00%
    217   213        0.0000   153        0.5000        0.0000   405506  100.00%
    223   219        0.0000   132        0.5000        0.0000   407773  100.00%
    231   227        0.0000   128        0.5000        0.0000   409461  100.00%
    240   236        0.0000   145        0.5000        0.0000   411081  100.00%
    249   245        0.0000   152        0.5000        0.0000   413492  100.00%
    258   254        0.0000   127        0.5000        0.0000   415835  100.00%
    268   262        0.0000   119        0.5000        0.0000   418603  100.00%
    278   272        0.0000   123        0.5000        0.0000   421154  100.00%
    332   283        0.0000    84        0.5000        0.0000   436651  100.00%
Elapsed time = 308.29 sec. (290729.23 ticks, tree = 6.42 MB, solutions = 4)
    383   296        0.0000    75        0.5000        0.0000   451470  100.00%
    433   300    infeasible              0.5000        0.0000   470991  100.00%
    485   304        0.0000    22        0.5000        0.0000   490202  100.00%
    533   307       -0.0000    22        0.5000        0.0000   511744  100.00%
    586   299        0.0000    67        0.5000        0.0000   536249  100.00%
    652   303        0.0000    51        0.5000        0.0000   548350  100.00%
    720   301    infeasible              0.5000        0.0000   561555  100.00%
    780   299    infeasible              0.5000        0.0000   577858  100.00%
    836   303        0.0000    28        0.5000        0.0000   595591  100.00%
    893   296    infeasible              0.5000        0.0000   614257  100.00%
Elapsed time = 349.51 sec. (329244.15 ticks, tree = 6.76 MB, solutions = 4)
    942   304        0.0000    80        0.5000        0.0000   629507  100.00%
    996   301        0.0000    46        0.5000        0.0000   647188  100.00%
   1053   302        0.0000    18        0.5000        0.0000   665600  100.00%
   1108   319        0.0000    81        0.5000        0.0000   679114  100.00%
   1161   328        0.0000    69        0.5000        0.0000   692522  100.00%
   1226   337        0.0000    76        0.5000        0.0000   705040  100.00%
   1293   327    infeasible              0.5000        0.0000   720869  100.00%
   1357   340        0.0000   100        0.5000        0.0000   733365  100.00%
   1422   349        0.0000    50        0.5000        0.0000   746396  100.00%
   1486   347        0.0000    57        0.5000        0.0000   758173  100.00%
Elapsed time = 390.16 sec. (367921.80 ticks, tree = 7.96 MB, solutions = 4)
   1554   346       -0.0000    79        0.5000        0.0000   771543  100.00%
   1619   343        0.0000    87        0.5000        0.0000   783614  100.00%
   1683   344        0.0000    56        0.5000        0.0000   797578  100.00%
   1742   354        0.0000    30        0.5000        0.0000   811205  100.00%
*  1744     1      integral     0        0.0000        0.0000   811614    0.00%

Root node processing (before b&c):
  Real time             =   21.72 sec. (21269.79 ticks)
Sequential b&c:
  Real time             =  384.64 sec. (362133.83 ticks)
                          ------------
Total (root+branch&cut) =  406.36 sec. (383403.62 ticks)
Primal:	0
Dual:	0
Status:	Optimal
Time:	405.57
Sequence:
	0
	1
	14
	0
	9
	3
	10
	6
	0
	11
	13
	15
	18
	1
	16
	18
	15
	9
	4
	2
	1
	12
	4
	7
	17
	5
	14
	0
	11
	0
	14
	6
	17
	9
	2
	18
	1
	15
	18
	16
	3
	6
	15
	9
	3
	2
	6
	12
	11
	7
	4
	12
	19
	13
	10
	9
	17
	14
	4
	0
	11
	15
	14
	4
	17
	7
	14
	12
	19
	8
	13
	6
	11
	15
	2
	18
	1
	18
	16
	15
	11
	6
	7
	0
	1
	8
	7
	5
	3
	12
	0
	7
	1
	18
	12
	2
	3
	6
	9
	10
	17
	13
	6
	7
	17
	0
	14
	14
	19
	8
	16
	5
	11
	6
	2
	0
	3
	6
	6
	2
	3
	8
	5
	14
	17
	7
	8
	14
	19
	12
	18
	2
	1
	18
	12
	7
	17
	6
	7
	12
	3
	8
	7
	5
	8
	1
	0
	7
	6
	11
	15
	13
	0
	3
	6
	10
	9
	19
	0
	14
	15
	3
	18
	16
	6
	3
	15
	13
	0
	1
	4
	12
	7
	8
	14
	19
	16
	9
	10
	19
	14
	0
	18
	11
	15
	6
	16
	3
	9
	6
	10
	19
	2
	4
	5
	1
	2
	8
	18
	1
	5
	8
	2
	19
	6
	6
	2
	11
	8
	5
	14
	17
	7
	8
	5
	3
	12
	4
	2
	1
	18
	12
	7
	17
	6
	13
	10
	19
	8
	14
	18
	11
	15
	16
	6
	11
	18
	12
	2
	1
	18
	4
	12
	19
	10
	9
	4
	1
	2
	15
	18
	3
	6
	16
	15
	11
	4
	14
	8
	19
	10
	4
	14
	17
	7
	12
	18
	1
	16
	18
	15
	3
	5
	8
	13
	19
	12
	14
	16
	19
	9
	10
	14
	17
	4
	13
	10
	19
	12
	13
	13
	19
	12
	12
	7
	3
	18
	12
	16
	1
